####################################################################### 
# 
# This file contains crystal structure data downloaded from the 
# Cambridge Structural Database (CSD) hosted by the Cambridge 
# Crystallographic Data Centre (CCDC).
# 
# Full information about CCDC data access policies and citation 
# guidelines are available at http://www.ccdc.cam.ac.uk/access/V1 
# 
# Audit and citation data items may have been added by the CCDC. 
# Please retain this information to preserve the provenance of 
# this file and to allow appropriate attribution of the data. 
# 
#######################################################################

data_1_sq
_audit_block_doi                 10.5517/cc11rcy3
_database_code_depnum_ccdc_archive 'CCDC 975785'
loop_
_citation_id
_citation_doi
_citation_year
1 10.1038/ncomms6723 2014
_audit_update_record             
;
2013-12-07 deposited with the CCDC.	2019-04-10 downloaded from the CCDC.
;

_audit_creation_method           SHELXL-97
_chemical_name_systematic        
; 
 ? 
;
_chemical_name_common            ?
_chemical_melting_point          ?
_chemical_formula_moiety         '(Fe2 Co O4)2 (C16 H6 N2 O8)3'
_chemical_formula_sum            'C48 H18 Co2 Fe4 N6 O32'
_chemical_formula_weight         1531.94

loop_
_atom_type_symbol
_atom_type_description
_atom_type_scat_dispersion_real
_atom_type_scat_dispersion_imag
_atom_type_scat_source
C C 0.0033 0.0016 'International Tables Vol C Tables 4.2.6.8 and 6.1.1.4'
H H 0.0000 0.0000 'International Tables Vol C Tables 4.2.6.8 and 6.1.1.4'
N N 0.0061 0.0033 'International Tables Vol C Tables 4.2.6.8 and 6.1.1.4'
O O 0.0106 0.0060 'International Tables Vol C Tables 4.2.6.8 and 6.1.1.4'
Fe Fe 0.3463 0.8444 'International Tables Vol C Tables 4.2.6.8 and 6.1.1.4'
Co Co 0.3494 0.9721 'International Tables Vol C Tables 4.2.6.8 and 6.1.1.4'

_symmetry_cell_setting           Cubic
_symmetry_space_group_name_H-M   Ia-3

loop_
_symmetry_equiv_pos_as_xyz
'x, y, z'
'z, x, y'
'y, z, x'
'-y, -z+1/2, x'
'z, -x, -y+1/2'
'-y+1/2, z, -x'
'-z, -x+1/2, y'
'-z+1/2, x, -y'
'y, -z, -x+1/2'
'-x, -y+1/2, z'
'x, -y, -z+1/2'
'-x+1/2, y, -z'
'x+1/2, y+1/2, z+1/2'
'z+1/2, x+1/2, y+1/2'
'y+1/2, z+1/2, x+1/2'
'-y+1/2, -z+1, x+1/2'
'z+1/2, -x+1/2, -y+1'
'-y+1, z+1/2, -x+1/2'
'-z+1/2, -x+1, y+1/2'
'-z+1, x+1/2, -y+1/2'
'y+1/2, -z+1/2, -x+1'
'-x+1/2, -y+1, z+1/2'
'x+1/2, -y+1/2, -z+1'
'-x+1, y+1/2, -z+1/2'
'-x, -y, -z'
'-z, -x, -y'
'-y, -z, -x'
'y, z-1/2, -x'
'-z, x, y-1/2'
'y-1/2, -z, x'
'z, x-1/2, -y'
'z-1/2, -x, y'
'-y, z, x-1/2'
'x, y-1/2, -z'
'-x, y, z-1/2'
'x-1/2, -y, z'
'-x+1/2, -y+1/2, -z+1/2'
'-z+1/2, -x+1/2, -y+1/2'
'-y+1/2, -z+1/2, -x+1/2'
'y+1/2, z, -x+1/2'
'-z+1/2, x+1/2, y'
'y, -z+1/2, x+1/2'
'z+1/2, x, -y+1/2'
'z, -x+1/2, y+1/2'
'-y+1/2, z+1/2, x'
'x+1/2, y, -z+1/2'
'-x+1/2, y+1/2, z'
'x, -y+1/2, z+1/2'

_cell_length_a                   44.043(17)
_cell_length_b                   44.043(17)
_cell_length_c                   44.043(17)
_cell_angle_alpha                90.00
_cell_angle_beta                 90.00
_cell_angle_gamma                90.00
_cell_volume                     85433(56)
_cell_formula_units_Z            32
_cell_measurement_temperature    110(2)
_cell_measurement_reflns_used    2694
_cell_measurement_theta_min      2.3528
_cell_measurement_theta_max      15.3529

_exptl_crystal_description       'Truncated Triangle'
_exptl_crystal_colour            Red
_exptl_crystal_size_max          0.20
_exptl_crystal_size_mid          0.20
_exptl_crystal_size_min          0.20
_exptl_crystal_density_meas      'not measured'
_exptl_crystal_density_diffrn    0.953
_exptl_crystal_density_method    'not measured'
_exptl_crystal_F_000             24384
_exptl_absorpt_coefficient_mu    0.888
_exptl_absorpt_correction_type   multi-scan
_exptl_absorpt_correction_T_min  0.8424
_exptl_absorpt_correction_T_max  0.8424
_exptl_absorpt_process_details   'SADABS (Sheldrick, 2008)'

_exptl_special_details           
; 
 ? 
;

_diffrn_ambient_temperature      110(2)
_diffrn_radiation_wavelength     0.71073
_diffrn_radiation_type           MoK\a
_diffrn_radiation_source         'fine-focus sealed tube'
_diffrn_radiation_monochromator  graphite
_diffrn_measurement_device_type  'Bruker SMART APEX II CCD area detector'
_diffrn_measurement_method       'phi and omega scans'
_diffrn_detector_area_resol_mean ?
_diffrn_reflns_number            246510
_diffrn_reflns_av_R_equivalents  0.2013
_diffrn_reflns_av_sigmaI/netI    0.1027
_diffrn_reflns_limit_h_min       -51
_diffrn_reflns_limit_h_max       50
_diffrn_reflns_limit_k_min       -51
_diffrn_reflns_limit_k_max       50
_diffrn_reflns_limit_l_min       -51
_diffrn_reflns_limit_l_max       51
_diffrn_reflns_theta_min         1.60
_diffrn_reflns_theta_max         24.77
_reflns_number_total             12181
_reflns_number_gt                6918
_reflns_threshold_expression     >2sigma(I)

_computing_data_collection       'APEX2  (Bruker, 2008)'
_computing_cell_refinement       'SAINT+ ver. (Bruker, 2001)'
_computing_data_reduction        'SAINT+ ver. (Bruker, 2001)'
_computing_structure_solution    'SHELXS-97 (Sheldrick, 2008)'
_computing_structure_refinement  'SHELXL-97 (Sheldrick, 2008)'
_computing_molecular_graphics    'SHELXTL (Sheldrick, 2008)'
_computing_publication_material  'SHELXTL (Sheldrick, 2008)'

_refine_special_details          
; 
 Refinement of F^2^ against ALL reflections.  The weighted R-factor wR and 
 goodness of fit S are based on F^2^, conventional R-factors R are based 
 on F, with F set to zero for negative F^2^. The threshold expression of 
 F^2^ > 2sigma(F^2^) is used only for calculating R-factors(gt) etc. and is 
 not relevant to the choice of reflections for refinement.  R-factors based 
 on F^2^ are statistically about twice as large as those based on F, and R- 
 factors based on ALL data will be even larger. 
;

_refine_ls_structure_factor_coef Fsqd
_refine_ls_matrix_type           full
_refine_ls_weighting_scheme      calc
_refine_ls_weighting_details     
'calc w=1/[\s^2^(Fo^2^)+(0.0500P)^2^+7500.0000P] where P=(Fo^2^+2Fc^2^)/3'
_atom_sites_solution_primary     direct
_atom_sites_solution_secondary   difmap
_atom_sites_solution_hydrogens   geom
_refine_ls_hydrogen_treatment    constr
_refine_ls_extinction_method     none
_refine_ls_extinction_coef       ?
_refine_ls_number_reflns         12181
_refine_ls_number_parameters     233
_refine_ls_number_restraints     0
_refine_ls_R_factor_all          0.2463
_refine_ls_R_factor_gt           0.1827
_refine_ls_wR_factor_ref         0.4110
_refine_ls_wR_factor_gt          0.3782
_refine_ls_goodness_of_fit_ref   1.080
_refine_ls_restrained_S_all      1.080
_refine_ls_shift/su_max          0.001
_refine_ls_shift/su_mean         0.000

loop_
_atom_site_label
_atom_site_type_symbol
_atom_site_fract_x
_atom_site_fract_y
_atom_site_fract_z
_atom_site_U_iso_or_equiv
_atom_site_adp_type
_atom_site_occupancy
_atom_site_symmetry_multiplicity
_atom_site_calc_flag
_atom_site_refinement_flags
_atom_site_disorder_assembly
_atom_site_disorder_group
Fe1 Fe 0.1480(2) 0.8961(2) 0.1324(2) 0.0206(11) Uani 0.67 1 d P . .
Fe2 Fe 0.1166(2) 0.8349(2) 0.10097(16) 0.0206(11) Uani 0.67 1 d P . .
Fe3 Fe 0.08638(18) 0.86572(18) 0.16332(14) 0.0206(11) Uani 0.67 1 d P . .
Fe4 Fe 0.1459(2) 0.91501(17) 0.3828(3) 0.0206(11) Uani 0.67 1 d P . .
Co1 Co 0.1483(5) 0.8983(4) 0.1370(5) 0.0206(11) Uani 0.33 1 d P . .
Co2 Co 0.1155(4) 0.8360(4) 0.1066(4) 0.0206(11) Uani 0.33 1 d P . .
Co3 Co 0.0851(4) 0.8670(4) 0.1695(3) 0.0206(11) Uani 0.33 1 d P . .
Co4 Co 0.1454(5) 0.9182(3) 0.3867(5) 0.0206(11) Uani 0.33 1 d P . .
O1 O 0.1424(2) 0.8620(2) -0.0495(2) 0.0329(9) Uani 1 1 d . . .
O2 O 0.1583(3) 0.9051(2) -0.0697(2) 0.0329(9) Uani 1 1 d . . .
O3 O 0.1262(2) 0.8631(2) 0.0672(2) 0.0329(9) Uani 1 1 d . . .
O4 O 0.1458(3) 0.9041(2) 0.0903(2) 0.0329(9) Uani 1 1 d . . .
O5 O 0.1603(2) 1.0788(2) -0.0911(2) 0.0329(9) Uani 1 1 d . . .
O6 O 0.1411(2) 1.1198(2) -0.0671(2) 0.0329(9) Uani 1 1 d . . .
O7 O 0.1429(2) 1.0743(2) 0.0701(2) 0.0329(9) Uani 1 1 d . . .
O8 O 0.1261(3) 1.1175(2) 0.0487(2) 0.0329(9) Uani 1 1 d . . .
O9 O 0.1136(2) 0.8754(3) 0.2012(2) 0.0395(10) Uani 1 1 d . . .
O10 O 0.1563(2) 0.8919(3) 0.1799(2) 0.0395(10) Uani 1 1 d . . .
O11 O 0.1107(2) 0.8943(3) 0.3188(2) 0.0395(10) Uani 1 1 d . . .
O12 O 0.1527(2) 0.9124(3) 0.3406(2) 0.0395(10) Uani 1 1 d . . .
O13 O 0.3275(2) 0.8932(3) 0.1582(2) 0.0395(10) Uani 1 1 d . . .
O14 O 0.3680(2) 0.8735(3) 0.1832(2) 0.0395(10) Uani 1 1 d . . .
O15 O 0.3256(2) 0.9084(3) 0.3197(2) 0.0395(10) Uani 1 1 d . . .
O16 O 0.3685(2) 0.8912(3) 0.3000(2) 0.0395(10) Uani 1 1 d . . .
O17 O 0.1801(2) 0.9310(2) 0.1361(2) 0.0296(10) Uani 1 1 d . . .
O18 O 0.1155(2) 0.8669(2) 0.1345(2) 0.0296(10) Uani 1 1 d . . .
O19 O 0.0523(2) 0.8649(2) 0.1981(2) 0.0296(10) Uani 1 1 d . . .
O20 O 0.1135(2) 0.8009(2) 0.0700(2) 0.0296(10) Uani 1 1 d . . .
O21 O 0.1802(2) 0.9494(2) 0.3849(2) 0.0296(10) Uani 1 1 d . . .
O22 O 0.1154(2) 0.8846(2) 0.3846(2) 0.0296(10) Uani 1 3 d S . .
N1 N 0.1518(4) 0.9847(3) 0.0113(3) 0.0540(13) Uani 1 1 d . . .
N2 N 0.1507(4) 0.9979(3) -0.0135(3) 0.0540(13) Uani 1 1 d . . .
N3 N 0.2343(3) 0.9059(4) 0.2621(3) 0.0571(14) Uani 1 1 d . . .
N4 N 0.2480(3) 0.9048(4) 0.2379(3) 0.0571(14) Uani 1 1 d . . .
C1 C 0.1500(5) 0.8905(4) -0.0488(4) 0.0540(13) Uani 1 1 d . . .
C2 C 0.1486(5) 0.9055(4) -0.0182(4) 0.0540(13) Uani 1 1 d . . .
C3 C 0.1545(5) 0.9366(4) -0.0187(4) 0.0540(13) Uani 1 1 d . . .
H3 H 0.1598 0.9470 -0.0369 0.065 Uiso 1 1 calc R . .
C4 C 0.1520(5) 0.9522(4) 0.0103(4) 0.0540(13) Uani 1 1 d . . .
C5 C 0.1456(5) 0.9369(4) 0.0358(4) 0.0540(13) Uani 1 1 d . . .
H5 H 0.1440 0.9477 0.0544 0.065 Uiso 1 1 calc R . .
C6 C 0.1412(5) 0.9056(4) 0.0359(4) 0.0540(13) Uani 1 1 d . . .
C7 C 0.1419(5) 0.8902(4) 0.0090(4) 0.0540(13) Uani 1 1 d . . .
H7 H 0.1378 0.8690 0.0087 0.065 Uiso 1 1 calc R . .
C8 C 0.1368(5) 0.8905(4) 0.0658(4) 0.0540(13) Uani 1 1 d . . .
C9 C 0.1505(5) 1.0301(4) -0.0100(4) 0.0540(13) Uani 1 1 d . . .
C10 C 0.1457(5) 1.0458(4) 0.0171(4) 0.0540(13) Uani 1 1 d . . .
H10 H 0.1455 1.0348 0.0356 0.065 Uiso 1 1 calc R . .
C11 C 0.1414(5) 1.0768(4) 0.0176(4) 0.0540(13) Uani 1 1 d . . .
C12 C 0.1430(5) 1.0919(4) -0.0092(4) 0.0540(13) Uani 1 1 d . . .
H12 H 0.1403 1.1133 -0.0092 0.065 Uiso 1 1 calc R . .
C13 C 0.1486(5) 1.0774(4) -0.0371(4) 0.0540(13) Uani 1 1 d . . .
C14 C 0.1560(5) 1.0458(4) -0.0368(4) 0.0540(13) Uani 1 1 d . . .
H14 H 0.1643 1.0359 -0.0541 0.065 Uiso 1 1 calc R . .
C15 C 0.1360(5) 1.0907(4) 0.0486(4) 0.0540(13) Uani 1 1 d . . .
C16 C 0.1531(5) 1.0929(4) -0.0663(4) 0.0540(13) Uani 1 1 d . . .
C17 C 0.1414(4) 0.8867(6) 0.2010(4) 0.0571(14) Uani 1 1 d . . .
C18 C 0.1558(4) 0.8917(6) 0.2310(4) 0.0571(14) Uani 1 1 d . . .
C19 C 0.1396(4) 0.8933(5) 0.2590(4) 0.0571(14) Uani 1 1 d . . .
H19 H 0.1183 0.8900 0.2592 0.069 Uiso 1 1 calc R . .
C20 C 0.1552(4) 0.9000(6) 0.2874(4) 0.0571(14) Uani 1 1 d . . .
C21 C 0.1858(4) 0.9038(5) 0.2871(4) 0.0571(14) Uani 1 1 d . . .
H21 H 0.1963 0.9089 0.3053 0.069 Uiso 1 1 calc R . .
C22 C 0.2019(4) 0.9002(6) 0.2597(4) 0.0571(14) Uani 1 1 d . . .
C23 C 0.1867(4) 0.8956(5) 0.2325(4) 0.0571(14) Uani 1 1 d . . .
H23 H 0.1981 0.8952 0.2142 0.069 Uiso 1 1 calc R . .
C24 C 0.1404(4) 0.9021(6) 0.3163(4) 0.0571(14) Uani 1 1 d . . .
C25 C 0.2808(4) 0.8999(6) 0.2412(4) 0.0571(14) Uani 1 1 d . . .
C26 C 0.2948(4) 0.9019(5) 0.2681(4) 0.0571(14) Uani 1 1 d . . .
H26 H 0.2838 0.9056 0.2863 0.069 Uiso 1 1 calc R . .
C27 C 0.3263(4) 0.8982(6) 0.2681(4) 0.0571(14) Uani 1 1 d . . .
C28 C 0.3419(4) 0.8915(5) 0.2408(4) 0.0571(14) Uani 1 1 d . . .
H28 H 0.3629 0.8867 0.2411 0.069 Uiso 1 1 calc R . .
C29 C 0.3269(4) 0.8922(6) 0.2148(4) 0.0571(14) Uani 1 1 d . . .
C30 C 0.2964(4) 0.8948(5) 0.2138(4) 0.0571(14) Uani 1 1 d . . .
H30 H 0.2857 0.8932 0.1951 0.069 Uiso 1 1 calc R . .
C31 C 0.3436(4) 0.9019(6) 0.2981(4) 0.0571(14) Uani 1 1 d . . .
C32 C 0.3401(4) 0.8870(6) 0.1844(4) 0.0571(14) Uani 1 1 d . . .

loop_
_atom_site_aniso_label
_atom_site_aniso_U_11
_atom_site_aniso_U_22
_atom_site_aniso_U_33
_atom_site_aniso_U_23
_atom_site_aniso_U_13
_atom_site_aniso_U_12
Fe1 0.0239(7) 0.0246(11) 0.013(3) -0.0050(15) 0.0023(14) 0.0016(7)
Fe2 0.0239(7) 0.0246(11) 0.013(3) -0.0050(15) 0.0023(14) 0.0016(7)
Fe3 0.0239(7) 0.0246(11) 0.013(3) -0.0050(15) 0.0023(14) 0.0016(7)
Fe4 0.0239(7) 0.0246(11) 0.013(3) -0.0050(15) 0.0023(14) 0.0016(7)
Co1 0.0239(7) 0.0246(11) 0.013(3) -0.0050(15) 0.0023(14) 0.0016(7)
Co2 0.0239(7) 0.0246(11) 0.013(3) -0.0050(15) 0.0023(14) 0.0016(7)
Co3 0.0239(7) 0.0246(11) 0.013(3) -0.0050(15) 0.0023(14) 0.0016(7)
Co4 0.0239(7) 0.0246(11) 0.013(3) -0.0050(15) 0.0023(14) 0.0016(7)
O1 0.050(2) 0.0236(19) 0.0247(19) -0.0053(16) -0.0021(18) 0.0080(18)
O2 0.050(2) 0.0236(19) 0.0247(19) -0.0053(16) -0.0021(18) 0.0080(18)
O3 0.050(2) 0.0236(19) 0.0247(19) -0.0053(16) -0.0021(18) 0.0080(18)
O4 0.050(2) 0.0236(19) 0.0247(19) -0.0053(16) -0.0021(18) 0.0080(18)
O5 0.050(2) 0.0236(19) 0.0247(19) -0.0053(16) -0.0021(18) 0.0080(18)
O6 0.050(2) 0.0236(19) 0.0247(19) -0.0053(16) -0.0021(18) 0.0080(18)
O7 0.050(2) 0.0236(19) 0.0247(19) -0.0053(16) -0.0021(18) 0.0080(18)
O8 0.050(2) 0.0236(19) 0.0247(19) -0.0053(16) -0.0021(18) 0.0080(18)
O9 0.034(2) 0.059(3) 0.025(2) 0.0016(19) -0.0074(17) 0.002(2)
O10 0.034(2) 0.059(3) 0.025(2) 0.0016(19) -0.0074(17) 0.002(2)
O11 0.034(2) 0.059(3) 0.025(2) 0.0016(19) -0.0074(17) 0.002(2)
O12 0.034(2) 0.059(3) 0.025(2) 0.0016(19) -0.0074(17) 0.002(2)
O13 0.034(2) 0.059(3) 0.025(2) 0.0016(19) -0.0074(17) 0.002(2)
O14 0.034(2) 0.059(3) 0.025(2) 0.0016(19) -0.0074(17) 0.002(2)
O15 0.034(2) 0.059(3) 0.025(2) 0.0016(19) -0.0074(17) 0.002(2)
O16 0.034(2) 0.059(3) 0.025(2) 0.0016(19) -0.0074(17) 0.002(2)
O17 0.020(2) 0.036(3) 0.032(3) -0.004(2) 0.008(2) -0.005(2)
O18 0.020(2) 0.036(3) 0.032(3) -0.004(2) 0.008(2) -0.005(2)
O19 0.020(2) 0.036(3) 0.032(3) -0.004(2) 0.008(2) -0.005(2)
O20 0.020(2) 0.036(3) 0.032(3) -0.004(2) 0.008(2) -0.005(2)
O21 0.020(2) 0.036(3) 0.032(3) -0.004(2) 0.008(2) -0.005(2)
O22 0.020(2) 0.036(3) 0.032(3) -0.004(2) 0.008(2) -0.005(2)
N1 0.118(4) 0.026(2) 0.0175(18) -0.0051(16) 0.002(2) -0.007(2)
N2 0.118(4) 0.026(2) 0.0175(18) -0.0051(16) 0.002(2) -0.007(2)
N3 0.0223(19) 0.131(4) 0.0179(18) -0.006(2) -0.0028(16) -0.005(2)
N4 0.0223(19) 0.131(4) 0.0179(18) -0.006(2) -0.0028(16) -0.005(2)
C1 0.118(4) 0.026(2) 0.0175(18) -0.0051(16) 0.002(2) -0.007(2)
C2 0.118(4) 0.026(2) 0.0175(18) -0.0051(16) 0.002(2) -0.007(2)
C3 0.118(4) 0.026(2) 0.0175(18) -0.0051(16) 0.002(2) -0.007(2)
C4 0.118(4) 0.026(2) 0.0175(18) -0.0051(16) 0.002(2) -0.007(2)
C5 0.118(4) 0.026(2) 0.0175(18) -0.0051(16) 0.002(2) -0.007(2)
C6 0.118(4) 0.026(2) 0.0175(18) -0.0051(16) 0.002(2) -0.007(2)
C7 0.118(4) 0.026(2) 0.0175(18) -0.0051(16) 0.002(2) -0.007(2)
C8 0.118(4) 0.026(2) 0.0175(18) -0.0051(16) 0.002(2) -0.007(2)
C9 0.118(4) 0.026(2) 0.0175(18) -0.0051(16) 0.002(2) -0.007(2)
C10 0.118(4) 0.026(2) 0.0175(18) -0.0051(16) 0.002(2) -0.007(2)
C11 0.118(4) 0.026(2) 0.0175(18) -0.0051(16) 0.002(2) -0.007(2)
C12 0.118(4) 0.026(2) 0.0175(18) -0.0051(16) 0.002(2) -0.007(2)
C13 0.118(4) 0.026(2) 0.0175(18) -0.0051(16) 0.002(2) -0.007(2)
C14 0.118(4) 0.026(2) 0.0175(18) -0.0051(16) 0.002(2) -0.007(2)
C15 0.118(4) 0.026(2) 0.0175(18) -0.0051(16) 0.002(2) -0.007(2)
C16 0.118(4) 0.026(2) 0.0175(18) -0.0051(16) 0.002(2) -0.007(2)
C17 0.0223(19) 0.131(4) 0.0179(18) -0.006(2) -0.0028(16) -0.005(2)
C18 0.0223(19) 0.131(4) 0.0179(18) -0.006(2) -0.0028(16) -0.005(2)
C19 0.0223(19) 0.131(4) 0.0179(18) -0.006(2) -0.0028(16) -0.005(2)
C20 0.0223(19) 0.131(4) 0.0179(18) -0.006(2) -0.0028(16) -0.005(2)
C21 0.0223(19) 0.131(4) 0.0179(18) -0.006(2) -0.0028(16) -0.005(2)
C22 0.0223(19) 0.131(4) 0.0179(18) -0.006(2) -0.0028(16) -0.005(2)
C23 0.0223(19) 0.131(4) 0.0179(18) -0.006(2) -0.0028(16) -0.005(2)
C24 0.0223(19) 0.131(4) 0.0179(18) -0.006(2) -0.0028(16) -0.005(2)
C25 0.0223(19) 0.131(4) 0.0179(18) -0.006(2) -0.0028(16) -0.005(2)
C26 0.0223(19) 0.131(4) 0.0179(18) -0.006(2) -0.0028(16) -0.005(2)
C27 0.0223(19) 0.131(4) 0.0179(18) -0.006(2) -0.0028(16) -0.005(2)
C28 0.0223(19) 0.131(4) 0.0179(18) -0.006(2) -0.0028(16) -0.005(2)
C29 0.0223(19) 0.131(4) 0.0179(18) -0.006(2) -0.0028(16) -0.005(2)
C30 0.0223(19) 0.131(4) 0.0179(18) -0.006(2) -0.0028(16) -0.005(2)
C31 0.0223(19) 0.131(4) 0.0179(18) -0.006(2) -0.0028(16) -0.005(2)
C32 0.0223(19) 0.131(4) 0.0179(18) -0.006(2) -0.0028(16) -0.005(2)

_geom_special_details            
; 
 All esds (except the esd in the dihedral angle between two l.s. planes) 
 are estimated using the full covariance matrix.  The cell esds are taken 
 into account individually in the estimation of esds in distances, angles 
 and torsion angles; correlations between esds in cell parameters are only 
 used when they are defined by crystal symmetry.  An approximate (isotropic) 
 treatment of cell esds is used for estimating esds involving l.s. planes. 
;

loop_
_geom_bond_atom_site_label_1
_geom_bond_atom_site_label_2
_geom_bond_distance
_geom_bond_site_symmetry_2
_geom_bond_publ_flag
Fe1 O4 1.892(14) . ?
Fe1 O18 1.925(13) . ?
Fe1 O14 2.000(15) 31_566 ?
Fe1 O17 2.097(13) . ?
Fe1 O6 2.078(15) 3_465 ?
Fe1 O10 2.133(14) . ?
Fe2 O13 1.879(14) 31_566 ?
Fe2 O3 1.982(12) . ?
Fe2 O20 2.030(14) . ?
Fe2 O18 2.041(14) . ?
Fe2 O2 2.105(13) 26_566 ?
Fe2 O16 2.072(12) 18 ?
Fe3 O18 1.805(11) . ?
Fe3 O5 1.935(13) 3_465 ?
Fe3 O1 2.004(13) 26_566 ?
Fe3 O15 2.100(13) 18 ?
Fe3 O9 2.101(13) . ?
Fe3 O19 2.146(11) . ?
Fe4 O12 1.884(15) . ?
Fe4 O22 1.900(9) . ?
Fe4 O11 1.987(15) 19_554 ?
Fe4 O8 2.069(13) 9_465 ?
Fe4 O21 2.138(13) . ?
Fe4 O7 2.132(15) 11_575 ?
Co1 O10 1.94(2) . ?
Co1 O17 2.01(2) . ?
Co1 O6 1.98(2) 3_465 ?
Co1 O18 2.00(2) . ?
Co1 O14 2.09(2) 31_566 ?
Co1 O4 2.08(2) . ?
Co2 O18 1.83(2) . ?
Co2 O13 1.92(2) 31_566 ?
Co2 O16 1.950(18) 18 ?
Co2 O2 2.10(2) 26_566 ?
Co2 O3 2.158(17) . ?
Co2 O20 2.23(2) . ?
Co3 O9 1.92(2) . ?
Co3 O5 1.910(19) 3_465 ?
Co3 O19 1.920(17) . ?
Co3 O18 2.042(17) . ?
Co3 O15 2.116(19) 18 ?
Co3 O1 2.137(19) 26_566 ?
Co4 O7 1.94(2) 11_575 ?
Co4 O22 1.988(17) . ?
Co4 O11 2.05(2) 19_554 ?
Co4 O8 1.99(2) 9_465 ?
Co4 O21 2.06(2) . ?
Co4 O12 2.07(3) . ?
O1 C1 1.300(19) . ?
O1 Fe3 2.004(13) 27_665 ?
O1 Co3 2.136(19) 27_665 ?
O2 C1 1.181(19) . ?
O2 Fe2 2.105(13) 27_665 ?
O2 Co2 2.10(2) 27_665 ?
O3 C8 1.296(19) . ?
O4 C8 1.295(19) . ?
O5 C16 1.293(19) . ?
O5 Co3 1.910(19) 2_564 ?
O5 Fe3 1.935(13) 2_564 ?
O6 C16 1.30(2) . ?
O6 Co1 1.98(2) 2_564 ?
O6 Fe1 2.078(15) 2_564 ?
O7 C15 1.228(19) . ?
O7 Co4 1.94(2) 11_575 ?
O7 Fe4 2.132(15) 11_575 ?
O8 C15 1.26(2) . ?
O8 Co4 1.99(2) 8_566 ?
O8 Fe4 2.069(13) 8_566 ?
O9 C17 1.32(2) . ?
O10 C17 1.162(19) . ?
O11 C24 1.36(2) . ?
O11 Fe4 1.987(15) 18 ?
O11 Co4 2.05(2) 18 ?
O12 C24 1.282(19) . ?
O13 C32 1.309(19) . ?
O13 Fe2 1.879(14) 30_565 ?
O13 Co2 1.92(2) 30_565 ?
O14 C32 1.37(2) . ?
O14 Fe1 2.000(15) 30_565 ?
O14 Co1 2.09(2) 30_565 ?
O15 C31 1.271(19) . ?
O15 Fe3 2.099(13) 19_554 ?
O15 Co3 2.116(19) 19_554 ?
O16 C31 1.20(2) . ?
O16 Co2 1.950(18) 19_554 ?
O16 Fe2 2.072(13) 19_554 ?
O22 Fe4 1.900(9) 18 ?
O22 Fe4 1.900(9) 19_554 ?
O22 Co4 1.988(17) 18 ?
O22 Co4 1.988(17) 19_554 ?
N1 N2 1.236(18) . ?
N1 C4 1.43(2) . ?
N2 C9 1.42(2) . ?
N3 N4 1.228(18) . ?
N3 C22 1.45(2) . ?
N4 C25 1.47(2) . ?
C1 C2 1.50(2) . ?
C2 C3 1.40(2) . ?
C2 C7 1.41(2) . ?
C3 C4 1.46(2) . ?
C3 H3 0.9500 . ?
C4 C5 1.34(2) . ?
C5 C6 1.39(2) . ?
C5 H5 0.9500 . ?
C6 C7 1.37(2) . ?
C6 C8 1.49(2) . ?
C7 H7 0.9500 . ?
C9 C14 1.39(2) . ?
C9 C10 1.40(2) . ?
C10 C11 1.38(2) . ?
C10 H10 0.9500 . ?
C11 C12 1.36(2) . ?
C11 C15 1.52(2) . ?
C12 C13 1.41(2) . ?
C12 H12 0.9500 . ?
C13 C14 1.43(2) . ?
C13 C16 1.47(2) . ?
C14 H14 0.9500 . ?
C17 C18 1.48(2) . ?
C18 C23 1.37(2) . ?
C18 C19 1.43(2) . ?
C19 C20 1.46(2) . ?
C19 H19 0.9500 . ?
C20 C21 1.36(2) . ?
C20 C24 1.43(2) . ?
C21 C22 1.41(2) . ?
C21 H21 0.9500 . ?
C22 C23 1.39(2) . ?
C23 H23 0.9500 . ?
C25 C26 1.34(2) . ?
C25 C30 1.41(2) . ?
C26 C27 1.40(2) . ?
C26 H26 0.9500 . ?
C27 C28 1.42(2) . ?
C27 C31 1.53(2) . ?
C28 C29 1.32(2) . ?
C28 H28 0.9500 . ?
C29 C30 1.35(2) . ?
C29 C32 1.48(2) . ?
C30 H30 0.9500 . ?

loop_
_geom_angle_atom_site_label_1
_geom_angle_atom_site_label_2
_geom_angle_atom_site_label_3
_geom_angle
_geom_angle_site_symmetry_1
_geom_angle_site_symmetry_3
_geom_angle_publ_flag
O4 Fe1 O18 97.8(6) . . ?
O4 Fe1 O14 91.6(6) . 31_566 ?
O18 Fe1 O14 99.6(6) . 31_566 ?
O4 Fe1 O17 88.4(6) . . ?
O18 Fe1 O17 171.0(7) . . ?
O14 Fe1 O17 86.6(6) 31_566 . ?
O4 Fe1 O6 90.2(6) . 3_465 ?
O18 Fe1 O6 94.0(6) . 3_465 ?
O14 Fe1 O6 165.8(6) 31_566 3_465 ?
O17 Fe1 O6 79.4(5) . 3_465 ?
O4 Fe1 O10 170.9(7) . . ?
O18 Fe1 O10 91.2(6) . . ?
O14 Fe1 O10 86.5(6) 31_566 . ?
O17 Fe1 O10 82.6(5) . . ?
O6 Fe1 O10 89.5(6) 3_465 . ?
O13 Fe2 O3 90.2(6) 31_566 . ?
O13 Fe2 O20 91.6(6) 31_566 . ?
O3 Fe2 O20 88.4(5) . . ?
O13 Fe2 O18 92.5(6) 31_566 . ?
O3 Fe2 O18 96.7(6) . . ?
O20 Fe2 O18 173.4(6) . . ?
O13 Fe2 O2 177.9(7) 31_566 26_566 ?
O3 Fe2 O2 91.5(5) . 26_566 ?
O20 Fe2 O2 87.3(5) . 26_566 ?
O18 Fe2 O2 88.4(5) . 26_566 ?
O13 Fe2 O16 86.7(6) 31_566 18 ?
O3 Fe2 O16 170.7(7) . 18 ?
O20 Fe2 O16 82.9(5) . 18 ?
O18 Fe2 O16 92.2(5) . 18 ?
O2 Fe2 O16 91.5(5) 26_566 18 ?
O18 Fe3 O5 92.6(5) . 3_465 ?
O18 Fe3 O1 101.0(5) . 26_566 ?
O5 Fe3 O1 89.9(5) 3_465 26_566 ?
O18 Fe3 O15 96.4(6) . 18 ?
O5 Fe3 O15 169.9(6) 3_465 18 ?
O1 Fe3 O15 92.7(6) 26_566 18 ?
O18 Fe3 O9 98.4(6) . . ?
O5 Fe3 O9 87.3(6) 3_465 . ?
O1 Fe3 O9 160.5(6) 26_566 . ?
O15 Fe3 O9 87.0(5) 18 . ?
O18 Fe3 O19 178.9(7) . . ?
O5 Fe3 O19 86.9(5) 3_465 . ?
O1 Fe3 O19 80.0(5) 26_566 . ?
O15 Fe3 O19 83.9(5) 18 . ?
O9 Fe3 O19 80.6(5) . . ?
O12 Fe4 O22 96.3(6) . . ?
O12 Fe4 O11 95.3(6) . 19_554 ?
O22 Fe4 O11 98.2(6) . 19_554 ?
O12 Fe4 O8 87.5(6) . 9_465 ?
O22 Fe4 O8 97.1(6) . 9_465 ?
O11 Fe4 O8 164.1(6) 19_554 9_465 ?
O12 Fe4 O21 88.6(6) . . ?
O22 Fe4 O21 175.0(8) . . ?
O11 Fe4 O21 80.8(6) 19_554 . ?
O8 Fe4 O21 83.6(5) 9_465 . ?
O12 Fe4 O7 169.3(7) . 11_575 ?
O22 Fe4 O7 94.0(7) . 11_575 ?
O11 Fe4 O7 85.8(6) 19_554 11_575 ?
O8 Fe4 O7 88.6(5) 9_465 11_575 ?
O21 Fe4 O7 81.1(5) . 11_575 ?
O10 Co1 O17 89.8(9) . . ?
O10 Co1 O6 98.1(11) . 3_465 ?
O17 Co1 O6 83.8(8) . 3_465 ?
O10 Co1 O18 94.7(9) . . ?
O17 Co1 O18 175.4(12) . . ?
O6 Co1 O18 94.7(10) 3_465 . ?
O10 Co1 O14 89.2(9) . 31_566 ?
O17 Co1 O14 86.6(9) . 31_566 ?
O6 Co1 O14 167.9(12) 3_465 31_566 ?
O18 Co1 O14 94.3(9) . 31_566 ?
O10 Co1 O4 172.3(13) . . ?
O17 Co1 O4 85.9(9) . . ?
O6 Co1 O4 87.8(8) 3_465 . ?
O18 Co1 O4 89.7(8) . . ?
O14 Co1 O4 84.1(9) 31_566 . ?
O18 Co2 O13 98.2(10) . 31_566 ?
O18 Co2 O16 103.1(9) . 18 ?
O13 Co2 O16 89.2(9) 31_566 18 ?
O18 Co2 O2 94.4(9) . 26_566 ?
O13 Co2 O2 165.3(11) 31_566 26_566 ?
O16 Co2 O2 95.2(8) 18 26_566 ?
O18 Co2 O3 97.4(8) . . ?
O13 Co2 O3 84.1(7) 31_566 . ?
O16 Co2 O3 159.1(12) 18 . ?
O2 Co2 O3 87.0(7) 26_566 . ?
O18 Co2 O20 175.4(10) . . ?
O13 Co2 O20 84.6(8) 31_566 . ?
O16 Co2 O20 80.6(8) 18 . ?
O2 Co2 O20 82.3(8) 26_566 . ?
O3 Co2 O20 79.1(7) . . ?
O9 Co3 O5 93.6(9) . 3_465 ?
O9 Co3 O19 91.5(8) . . ?
O5 Co3 O19 94.5(9) 3_465 . ?
O9 Co3 O18 96.9(8) . . ?
O5 Co3 O18 86.4(7) 3_465 . ?
O19 Co3 O18 171.5(11) . . ?
O9 Co3 O15 91.5(8) . 18 ?
O5 Co3 O15 173.5(10) 3_465 18 ?
O19 Co3 O15 89.3(7) . 18 ?
O18 Co3 O15 89.1(8) . 18 ?
O9 Co3 O1 173.6(9) . 26_566 ?
O5 Co3 O1 86.7(7) 3_465 26_566 ?
O19 Co3 O1 82.1(7) . 26_566 ?
O18 Co3 O1 89.5(7) . 26_566 ?
O15 Co3 O1 88.6(8) 18 26_566 ?
O7 Co4 O22 97.6(11) 11_575 . ?
O7 Co4 O11 89.4(10) 11_575 19_554 ?
O22 Co4 O11 93.3(8) . 19_554 ?
O7 Co4 O8 96.8(10) 11_575 9_465 ?
O22 Co4 O8 96.9(10) . 9_465 ?
O11 Co4 O8 167.3(13) 19_554 9_465 ?
O7 Co4 O21 88.0(9) 11_575 . ?
O22 Co4 O21 172.1(13) . . ?
O11 Co4 O21 81.3(8) 19_554 . ?
O8 Co4 O21 87.8(8) 9_465 . ?
O7 Co4 O12 173.9(12) 11_575 . ?
O22 Co4 O12 88.0(9) . . ?
O11 Co4 O12 87.9(9) 19_554 . ?
O8 Co4 O12 84.8(10) 9_465 . ?
O21 Co4 O12 86.1(9) . . ?
C1 O1 Fe3 127.1(10) . 27_665 ?
C1 O1 Co3 134.0(11) . 27_665 ?
Fe3 O1 Co3 7.0(6) 27_665 27_665 ?
C1 O2 Fe2 137.7(11) . 27_665 ?
C1 O2 Co2 130.7(12) . 27_665 ?
Fe2 O2 Co2 7.0(7) 27_665 27_665 ?
C8 O3 Fe2 134.1(10) . . ?
C8 O3 Co2 129.2(11) . . ?
Fe2 O3 Co2 5.2(8) . . ?
C8 O4 Fe1 138.1(11) . . ?
C8 O4 Co1 141.6(12) . . ?
Fe1 O4 Co1 3.7(8) . . ?
C16 O5 Co3 143.0(11) . 2_564 ?
C16 O5 Fe3 139.8(11) . 2_564 ?
Co3 O5 Fe3 8.4(6) 2_564 2_564 ?
C16 O6 Co1 129.3(11) . 2_564 ?
C16 O6 Fe1 129.7(10) . 2_564 ?
Co1 O6 Fe1 5.8(8) 2_564 2_564 ?
C15 O7 Co4 132.2(11) . 11_575 ?
C15 O7 Fe4 129.4(10) . 11_575 ?
Co4 O7 Fe4 3.0(7) 11_575 11_575 ?
C15 O8 Co4 132.8(11) . 8_566 ?
C15 O8 Fe4 129.4(10) . 8_566 ?
Co4 O8 Fe4 5.9(9) 8_566 8_566 ?
C17 O9 Co3 132.6(11) . . ?
C17 O9 Fe3 127.0(10) . . ?
Co3 O9 Fe3 6.2(6) . . ?
C17 O10 Co1 134.7(13) . . ?
C17 O10 Fe1 134.8(11) . . ?
Co1 O10 Fe1 3.5(8) . . ?
C24 O11 Fe4 132.5(10) . 18 ?
C24 O11 Co4 134.5(11) . 18 ?
Fe4 O11 Co4 6.0(9) 18 18 ?
C24 O12 Fe4 141.2(12) . . ?
C24 O12 Co4 142.9(12) . . ?
Fe4 O12 Co4 3.6(7) . . ?
C32 O13 Fe2 144.5(11) . 30_565 ?
C32 O13 Co2 141.5(12) . 30_565 ?
Fe2 O13 Co2 7.7(7) 30_565 30_565 ?
C32 O14 Fe1 130.0(10) . 30_565 ?
C32 O14 Co1 134.5(11) . 30_565 ?
Fe1 O14 Co1 5.8(8) 30_565 30_565 ?
C31 O15 Fe3 127.0(10) . 19_554 ?
C31 O15 Co3 134.7(11) . 19_554 ?
Fe3 O15 Co3 7.7(6) 19_554 19_554 ?
C31 O16 Co2 129.1(12) . 19_554 ?
C31 O16 Fe2 135.3(11) . 19_554 ?
Co2 O16 Fe2 6.5(8) 19_554 19_554 ?
Co1 O17 Fe1 5.8(9) . . ?
Fe3 O18 Co2 116.8(7) . . ?
Fe3 O18 Fe1 125.5(8) . . ?
Co2 O18 Fe1 117.6(7) . . ?
Fe3 O18 Co1 119.5(8) . . ?
Co2 O18 Co1 123.4(11) . . ?
Fe1 O18 Co1 6.2(9) . . ?
Fe3 O18 Co3 4.7(7) . . ?
Co2 O18 Co3 120.6(9) . . ?
Fe1 O18 Co3 121.4(6) . . ?
Co1 O18 Co3 115.4(11) . . ?
Fe3 O18 Fe2 120.4(6) . . ?
Co2 O18 Fe2 4.5(6) . . ?
Fe1 O18 Fe2 114.1(6) . . ?
Co1 O18 Fe2 120.0(8) . . ?
Co3 O18 Fe2 124.3(7) . . ?
Co3 O19 Fe3 4.9(7) . . ?
Fe2 O20 Co2 4.2(5) . . ?
Co4 O21 Fe4 5.7(9) . . ?
Fe4 O22 Fe4 119.93(6) . 18 ?
Fe4 O22 Fe4 119.92(6) . 19_554 ?
Fe4 O22 Fe4 119.93(6) 18 19_554 ?
Fe4 O22 Co4 6.0(10) . . ?
Fe4 O22 Co4 122.2(10) 18 . ?
Fe4 O22 Co4 117.9(10) 19_554 . ?
Fe4 O22 Co4 117.9(10) . 18 ?
Fe4 O22 Co4 6.0(10) 18 18 ?
Fe4 O22 Co4 122.2(10) 19_554 18 ?
Co4 O22 Co4 119.50(19) . 18 ?
Fe4 O22 Co4 122.2(10) . 19_554 ?
Fe4 O22 Co4 117.9(10) 18 19_554 ?
Fe4 O22 Co4 6.0(10) 19_554 19_554 ?
Co4 O22 Co4 119.50(19) . 19_554 ?
Co4 O22 Co4 119.50(19) 18 19_554 ?
N2 N1 C4 116.4(13) . . ?
N1 N2 C9 112.0(13) . . ?
N4 N3 C22 114.4(13) . . ?
N3 N4 C25 113.7(13) . . ?
O2 C1 O1 126.0(15) . . ?
O2 C1 C2 118.2(15) . . ?
O1 C1 C2 115.8(14) . . ?
C3 C2 C7 121.7(15) . . ?
C3 C2 C1 114.1(14) . . ?
C7 C2 C1 124.2(15) . . ?
C2 C3 C4 115.6(15) . . ?
C2 C3 H3 122.2 . . ?
C4 C3 H3 122.2 . . ?
C5 C4 N1 118.5(15) . . ?
C5 C4 C3 121.1(15) . . ?
N1 C4 C3 119.8(14) . . ?
C4 C5 C6 121.9(15) . . ?
C4 C5 H5 119.0 . . ?
C6 C5 H5 119.0 . . ?
C7 C6 C5 119.4(16) . . ?
C7 C6 C8 123.1(15) . . ?
C5 C6 C8 117.5(14) . . ?
C6 C7 C2 120.2(16) . . ?
C6 C7 H7 119.9 . . ?
C2 C7 H7 119.9 . . ?
O4 C8 O3 120.1(14) . . ?
O4 C8 C6 119.3(15) . . ?
O3 C8 C6 120.4(14) . . ?
C14 C9 C10 120.4(15) . . ?
C14 C9 N2 113.8(14) . . ?
C10 C9 N2 125.8(15) . . ?
C11 C10 C9 121.8(15) . . ?
C11 C10 H10 119.1 . . ?
C9 C10 H10 119.1 . . ?
C12 C11 C10 117.6(15) . . ?
C12 C11 C15 126.4(15) . . ?
C10 C11 C15 116.0(14) . . ?
C11 C12 C13 123.0(16) . . ?
C11 C12 H12 118.5 . . ?
C13 C12 H12 118.5 . . ?
C12 C13 C14 118.4(15) . . ?
C12 C13 C16 125.2(15) . . ?
C14 C13 C16 115.4(15) . . ?
C9 C14 C13 117.0(16) . . ?
C9 C14 H14 121.5 . . ?
C13 C14 H14 121.5 . . ?
O7 C15 O8 129.5(15) . . ?
O7 C15 C11 114.7(15) . . ?
O8 C15 C11 115.8(15) . . ?
O6 C16 O5 121.0(15) . . ?
O6 C16 C13 112.9(15) . . ?
O5 C16 C13 123.4(15) . . ?
O10 C17 O9 127.2(15) . . ?
O10 C17 C18 116.2(16) . . ?
O9 C17 C18 116.6(15) . . ?
C23 C18 C19 116.8(15) . . ?
C23 C18 C17 119.0(15) . . ?
C19 C18 C17 124.3(15) . . ?
C18 C19 C20 121.0(15) . . ?
C18 C19 H19 119.5 . . ?
C20 C19 H19 119.5 . . ?
C21 C20 C24 117.0(15) . . ?
C21 C20 C19 119.0(15) . . ?
C24 C20 C19 124.0(15) . . ?
C20 C21 C22 119.6(15) . . ?
C20 C21 H21 120.2 . . ?
C22 C21 H21 120.2 . . ?
C23 C22 C21 121.0(15) . . ?
C23 C22 N3 124.1(15) . . ?
C21 C22 N3 114.4(14) . . ?
C18 C23 C22 122.3(16) . . ?
C18 C23 H23 118.8 . . ?
C22 C23 H23 118.8 . . ?
O12 C24 O11 115.5(14) . . ?
O12 C24 C20 124.9(16) . . ?
O11 C24 C20 119.6(15) . . ?
C26 C25 C30 123.0(16) . . ?
C26 C25 N4 122.2(15) . . ?
C30 C25 N4 114.7(14) . . ?
C25 C26 C27 116.8(16) . . ?
C25 C26 H26 121.6 . . ?
C27 C26 H26 121.6 . . ?
C26 C27 C28 120.3(15) . . ?
C26 C27 C31 118.8(15) . . ?
C28 C27 C31 121.0(15) . . ?
C29 C28 C27 119.4(16) . . ?
C29 C28 H28 120.3 . . ?
C27 C28 H28 120.3 . . ?
C28 C29 C30 121.8(16) . . ?
C28 C29 C32 125.9(16) . . ?
C30 C29 C32 112.0(14) . . ?
C29 C30 C25 118.2(15) . . ?
C29 C30 H30 120.9 . . ?
C25 C30 H30 120.9 . . ?
O16 C31 O15 127.5(16) . . ?
O16 C31 C27 118.2(16) . . ?
O15 C31 C27 110.9(14) . . ?
O13 C32 O14 115.9(14) . . ?
O13 C32 C29 126.9(16) . . ?
O14 C32 C29 117.2(15) . . ?

loop_
_geom_torsion_atom_site_label_1
_geom_torsion_atom_site_label_2
_geom_torsion_atom_site_label_3
_geom_torsion_atom_site_label_4
_geom_torsion
_geom_torsion_site_symmetry_1
_geom_torsion_site_symmetry_2
_geom_torsion_site_symmetry_3
_geom_torsion_site_symmetry_4
_geom_torsion_publ_flag
O13 Fe2 O3 C8 -75.2(18) 31_566 . . . ?
O20 Fe2 O3 C8 -166.8(18) . . . . ?
O18 Fe2 O3 C8 17.3(19) . . . . ?
O2 Fe2 O3 C8 106.0(18) 26_566 . . . ?
O16 Fe2 O3 C8 -145(4) 18 . . . ?
O13 Fe2 O3 Co2 -96(8) 31_566 . . . ?
O20 Fe2 O3 Co2 172(8) . . . . ?
O18 Fe2 O3 Co2 -4(8) . . . . ?
O2 Fe2 O3 Co2 85(8) 26_566 . . . ?
O16 Fe2 O3 Co2 -166(11) 18 . . . ?
O18 Co2 O3 C8 15.3(19) . . . . ?
O13 Co2 O3 C8 -82.2(18) 31_566 . . . ?
O16 Co2 O3 C8 -154(3) 18 . . . ?
O2 Co2 O3 C8 109.4(17) 26_566 . . . ?
O20 Co2 O3 C8 -167.8(16) . . . . ?
O18 Co2 O3 Fe2 176(9) . . . . ?
O13 Co2 O3 Fe2 78(8) 31_566 . . . ?
O16 Co2 O3 Fe2 7(5) 18 . . . ?
O2 Co2 O3 Fe2 -90(8) 26_566 . . . ?
O20 Co2 O3 Fe2 -7(8) . . . . ?
O18 Fe1 O4 C8 -25(2) . . . . ?
O14 Fe1 O4 C8 75(2) 31_566 . . . ?
O17 Fe1 O4 C8 161.1(19) . . . . ?
O6 Fe1 O4 C8 -119.5(19) 3_465 . . . ?
O10 Fe1 O4 C8 152(5) . . . . ?
O18 Fe1 O4 Co1 132(14) . . . . ?
O14 Fe1 O4 Co1 -128(14) 31_566 . . . ?
O17 Fe1 O4 Co1 -41(14) . . . . ?
O6 Fe1 O4 Co1 38(14) 3_465 . . . ?
O10 Fe1 O4 Co1 -50(11) . . . . ?
O10 Co1 O4 C8 104(8) . . . . ?
O17 Co1 O4 C8 161(2) . . . . ?
O6 Co1 O4 C8 -116(2) 3_465 . . . ?
O18 Co1 O4 C8 -21(2) . . . . ?
O14 Co1 O4 C8 74(2) 31_566 . . . ?
O10 Co1 O4 Fe1 80(16) . . . . ?
O17 Co1 O4 Fe1 137(14) . . . . ?
O6 Co1 O4 Fe1 -139(14) 3_465 . . . ?
O18 Co1 O4 Fe1 -45(13) . . . . ?
O14 Co1 O4 Fe1 50(14) 31_566 . . . ?
O5 Co3 O9 C17 -68(2) 3_465 . . . ?
O19 Co3 O9 C17 -162.8(18) . . . . ?
O18 Co3 O9 C17 19(2) . . . . ?
O15 Co3 O9 C17 107.9(18) 18 . . . ?
O1 Co3 O9 C17 -161(8) 26_566 . . . ?
O5 Co3 O9 Fe3 -94(6) 3_465 . . . ?
O19 Co3 O9 Fe3 172(7) . . . . ?
O18 Co3 O9 Fe3 -7(6) . . . . ?
O15 Co3 O9 Fe3 82(6) 18 . . . ?
O1 Co3 O9 Fe3 173(100) 26_566 . . . ?
O18 Fe3 O9 C17 15.5(17) . . . . ?
O5 Fe3 O9 C17 -76.8(16) 3_465 . . . ?
O1 Fe3 O9 C17 -159(2) 26_566 . . . ?
O15 Fe3 O9 C17 111.5(16) 18 . . . ?
O19 Fe3 O9 C17 -164.1(17) . . . . ?
O18 Fe3 O9 Co3 172(6) . . . . ?
O5 Fe3 O9 Co3 80(6) 3_465 . . . ?
O1 Fe3 O9 Co3 -2(5) 26_566 . . . ?
O15 Fe3 O9 Co3 -92(6) 18 . . . ?
O19 Fe3 O9 Co3 -8(6) . . . . ?
O17 Co1 O10 C17 141(2) . . . . ?
O6 Co1 O10 C17 58(2) 3_465 . . . ?
O18 Co1 O10 C17 -38(2) . . . . ?
O14 Co1 O10 C17 -132(2) 31_566 . . . ?
O4 Co1 O10 C17 -163(8) . . . . ?
O17 Co1 O10 Fe1 -125(15) . . . . ?
O6 Co1 O10 Fe1 151(15) 3_465 . . . ?
O18 Co1 O10 Fe1 55(14) . . . . ?
O14 Co1 O10 Fe1 -39(14) 31_566 . . . ?
O4 Co1 O10 Fe1 -69(16) . . . . ?
O4 Fe1 O10 C17 151(5) . . . . ?
O18 Fe1 O10 C17 -31(2) . . . . ?
O14 Fe1 O10 C17 -131(2) 31_566 . . . ?
O17 Fe1 O10 C17 142(2) . . . . ?
O6 Fe1 O10 C17 63(2) 3_465 . . . ?
O4 Fe1 O10 Co1 61(13) . . . . ?
O18 Fe1 O10 Co1 -121(15) . . . . ?
O14 Fe1 O10 Co1 139(15) 31_566 . . . ?
O17 Fe1 O10 Co1 52(15) . . . . ?
O6 Fe1 O10 Co1 -27(15) 3_465 . . . ?
O22 Fe4 O12 C24 17(2) . . . . ?
O11 Fe4 O12 C24 116(2) 19_554 . . . ?
O8 Fe4 O12 C24 -80(2) 9_465 . . . ?
O21 Fe4 O12 C24 -164(2) . . . . ?
O7 Fe4 O12 C24 -149(4) 11_575 . . . ?
O22 Fe4 O12 Co4 138(14) . . . . ?
O11 Fe4 O12 Co4 -123(14) 19_554 . . . ?
O8 Fe4 O12 Co4 41(14) 9_465 . . . ?
O21 Fe4 O12 Co4 -43(14) . . . . ?
O7 Fe4 O12 Co4 -28(11) 11_575 . . . ?
O7 Co4 O12 C24 -179(100) 11_575 . . . ?
O22 Co4 O12 C24 23(2) . . . . ?
O11 Co4 O12 C24 117(2) 19_554 . . . ?
O8 Co4 O12 C24 -74(2) 9_465 . . . ?
O21 Co4 O12 C24 -162(2) . . . . ?
O7 Co4 O12 Fe4 118(22) 11_575 . . . ?
O22 Co4 O12 Fe4 -40(13) . . . . ?
O11 Co4 O12 Fe4 54(14) 19_554 . . . ?
O8 Co4 O12 Fe4 -137(14) 9_465 . . . ?
O21 Co4 O12 Fe4 135(14) . . . . ?
O10 Co1 O17 Fe1 150(9) . . . . ?
O6 Co1 O17 Fe1 -112(8) 3_465 . . . ?
O18 Co1 O17 Fe1 -40(13) . . . . ?
O14 Co1 O17 Fe1 61(8) 31_566 . . . ?
O4 Co1 O17 Fe1 -23(8) . . . . ?
O4 Fe1 O17 Co1 154(9) . . . . ?
O18 Fe1 O17 Co1 20(6) . . . . ?
O14 Fe1 O17 Co1 -114(8) 31_566 . . . ?
O6 Fe1 O17 Co1 64(8) 3_465 . . . ?
O10 Fe1 O17 Co1 -27(8) . . . . ?
O5 Fe3 O18 Co2 -137.8(9) 3_465 . . . ?
O1 Fe3 O18 Co2 -47.5(8) 26_566 . . . ?
O15 Fe3 O18 Co2 46.6(8) 18 . . . ?
O9 Fe3 O18 Co2 134.5(9) . . . . ?
O19 Fe3 O18 Co2 156(41) . . . . ?
O5 Fe3 O18 Fe1 46.5(10) 3_465 . . . ?
O1 Fe3 O18 Fe1 136.9(8) 26_566 . . . ?
O15 Fe3 O18 Fe1 -129.1(8) 18 . . . ?
O9 Fe3 O18 Fe1 -41.2(10) . . . . ?
O19 Fe3 O18 Fe1 -20(42) . . . . ?
O5 Fe3 O18 Co1 48.5(8) 3_465 . . . ?
O1 Fe3 O18 Co1 138.9(9) 26_566 . . . ?
O15 Fe3 O18 Co1 -127.1(9) 18 . . . ?
O9 Fe3 O18 Co1 -39.2(8) . . . . ?
O19 Fe3 O18 Co1 -18(42) . . . . ?
O5 Fe3 O18 Co3 78(8) 3_465 . . . ?
O1 Fe3 O18 Co3 168(9) 26_566 . . . ?
O15 Fe3 O18 Co3 -98(8) 18 . . . ?
O9 Fe3 O18 Co3 -10(8) . . . . ?
O19 Fe3 O18 Co3 11(36) . . . . ?
O5 Fe3 O18 Fe2 -134.8(7) 3_465 . . . ?
O1 Fe3 O18 Fe2 -44.4(9) 26_566 . . . ?
O15 Fe3 O18 Fe2 49.6(8) 18 . . . ?
O9 Fe3 O18 Fe2 137.5(7) . . . . ?
O19 Fe3 O18 Fe2 159(41) . . . . ?
O13 Co2 O18 Fe3 -135.0(8) 31_566 . . . ?
O16 Co2 O18 Fe3 -44.0(10) 18 . . . ?
O2 Co2 O18 Fe3 52.4(8) 26_566 . . . ?
O3 Co2 O18 Fe3 139.9(8) . . . . ?
O20 Co2 O18 Fe3 98(13) . . . . ?
O13 Co2 O18 Fe1 41.0(9) 31_566 . . . ?
O16 Co2 O18 Fe1 132.1(9) 18 . . . ?
O2 Co2 O18 Fe1 -131.6(7) 26_566 . . . ?
O3 Co2 O18 Fe1 -44.1(9) . . . . ?
O20 Co2 O18 Fe1 -86(13) . . . . ?
O13 Co2 O18 Co1 38.3(14) 31_566 . . . ?
O16 Co2 O18 Co1 129.4(9) 18 . . . ?
O2 Co2 O18 Co1 -134.2(10) 26_566 . . . ?
O3 Co2 O18 Co1 -46.7(15) . . . . ?
O20 Co2 O18 Co1 -89(13) . . . . ?
O13 Co2 O18 Co3 -131.9(9) 31_566 . . . ?
O16 Co2 O18 Co3 -40.8(15) 18 . . . ?
O2 Co2 O18 Co3 55.6(12) 26_566 . . . ?
O3 Co2 O18 Co3 143.1(7) . . . . ?
O20 Co2 O18 Co3 101(12) . . . . ?
O13 Co2 O18 Fe2 81(10) 31_566 . . . ?
O16 Co2 O18 Fe2 172(11) 18 . . . ?
O2 Co2 O18 Fe2 -92(10) 26_566 . . . ?
O3 Co2 O18 Fe2 -4(10) . . . . ?
O20 Co2 O18 Fe2 -47(9) . . . . ?
O4 Fe1 O18 Fe3 -135.9(7) . . . . ?
O14 Fe1 O18 Fe3 131.1(8) 31_566 . . . ?
O17 Fe1 O18 Fe3 -3(5) . . . . ?
O6 Fe1 O18 Fe3 -45.1(10) 3_465 . . . ?
O10 Fe1 O18 Fe3 44.4(10) . . . . ?
O4 Fe1 O18 Co2 48.4(8) . . . . ?
O14 Fe1 O18 Co2 -44.5(8) 31_566 . . . ?
O17 Fe1 O18 Co2 -178(100) . . . . ?
O6 Fe1 O18 Co2 139.2(9) 3_465 . . . ?
O10 Fe1 O18 Co2 -131.2(9) . . . . ?
O4 Fe1 O18 Co1 -152(8) . . . . ?
O14 Fe1 O18 Co1 115(8) 31_566 . . . ?
O17 Fe1 O18 Co1 -19(6) . . . . ?
O6 Fe1 O18 Co1 -62(8) 3_465 . . . ?
O10 Fe1 O18 Co1 28(8) . . . . ?
O4 Fe1 O18 Co3 -138.8(9) . . . . ?
O14 Fe1 O18 Co3 128.2(8) 31_566 . . . ?
O17 Fe1 O18 Co3 -5(5) . . . . ?
O6 Fe1 O18 Co3 -48.0(8) 3_465 . . . ?
O10 Fe1 O18 Co3 41.6(7) . . . . ?
O4 Fe1 O18 Fe2 45.3(9) . . . . ?
O14 Fe1 O18 Fe2 -47.7(8) 31_566 . . . ?
O17 Fe1 O18 Fe2 179(100) . . . . ?
O6 Fe1 O18 Fe2 136.1(6) 3_465 . . . ?
O10 Fe1 O18 Fe2 -134.4(6) . . . . ?
O10 Co1 O18 Fe3 46.4(10) . . . . ?
O17 Co1 O18 Fe3 -123(17) . . . . ?
O6 Co1 O18 Fe3 -52.1(10) 3_465 . . . ?
O14 Co1 O18 Fe3 136.0(8) 31_566 . . . ?
O4 Co1 O18 Fe3 -139.9(8) . . . . ?
O10 Co1 O18 Co2 -126.8(10) . . . . ?
O17 Co1 O18 Co2 63(18) . . . . ?
O6 Co1 O18 Co2 134.7(10) 3_465 . . . ?
O14 Co1 O18 Co2 -37.2(15) 31_566 . . . ?
O4 Co1 O18 Co2 46.9(15) . . . . ?
O10 Co1 O18 Fe1 -149(9) . . . . ?
O17 Co1 O18 Fe1 41(13) . . . . ?
O6 Co1 O18 Fe1 112(8) 3_465 . . . ?
O14 Co1 O18 Fe1 -59(8) 31_566 . . . ?
O4 Co1 O18 Fe1 25(8) . . . . ?
O10 Co1 O18 Co3 43.9(14) . . . . ?
O17 Co1 O18 Co3 -126(17) . . . . ?
O6 Co1 O18 Co3 -54.6(12) 3_465 . . . ?
O14 Co1 O18 Co3 133.5(9) 31_566 . . . ?
O4 Co1 O18 Co3 -142.4(7) . . . . ?
O10 Co1 O18 Fe2 -130.3(9) . . . . ?
O17 Co1 O18 Fe2 60(18) . . . . ?
O6 Co1 O18 Fe2 131.2(8) 3_465 . . . ?
O14 Co1 O18 Fe2 -40.7(9) 31_566 . . . ?
O4 Co1 O18 Fe2 43.4(9) . . . . ?
O9 Co3 O18 Fe3 169(9) . . . . ?
O5 Co3 O18 Fe3 -98(8) 3_465 . . . ?
O19 Co3 O18 Fe3 -2(4) . . . . ?
O15 Co3 O18 Fe3 78(8) 18 . . . ?
O1 Co3 O18 Fe3 -11(8) 26_566 . . . ?
O9 Co3 O18 Co2 132.0(10) . . . . ?
O5 Co3 O18 Co2 -134.8(9) 3_465 . . . ?
O19 Co3 O18 Co2 -39(7) . . . . ?
O15 Co3 O18 Co2 40.6(13) 18 . . . ?
O1 Co3 O18 Co2 -48.0(12) 26_566 . . . ?
O9 Co3 O18 Fe1 -40.5(9) . . . . ?
O5 Co3 O18 Fe1 52.7(8) 3_465 . . . ?
O19 Co3 O18 Fe1 149(7) . . . . ?
O15 Co3 O18 Fe1 -132.0(8) 18 . . . ?
O1 Co3 O18 Fe1 139.4(8) 26_566 . . . ?
O9 Co3 O18 Co1 -38.9(13) . . . . ?
O5 Co3 O18 Co1 54.3(12) 3_465 . . . ?
O19 Co3 O18 Co1 150(6) . . . . ?
O15 Co3 O18 Co1 -130.4(9) 18 . . . ?
O1 Co3 O18 Co1 141.0(8) 26_566 . . . ?
O9 Co3 O18 Fe2 134.9(8) . . . . ?
O5 Co3 O18 Fe2 -131.8(8) 3_465 . . . ?
O19 Co3 O18 Fe2 -36(7) . . . . ?
O15 Co3 O18 Fe2 43.5(8) 18 . . . ?
O1 Co3 O18 Fe2 -45.1(8) 26_566 . . . ?
O13 Fe2 O18 Fe3 -131.5(7) 31_566 . . . ?
O3 Fe2 O18 Fe3 138.0(7) . . . . ?
O20 Fe2 O18 Fe3 -3(6) . . . . ?
O2 Fe2 O18 Fe3 46.7(8) 26_566 . . . ?
O16 Fe2 O18 Fe3 -44.7(9) 18 . . . ?
O13 Fe2 O18 Co2 -94(10) 31_566 . . . ?
O3 Fe2 O18 Co2 175(11) . . . . ?
O20 Fe2 O18 Co2 34(8) . . . . ?
O2 Fe2 O18 Co2 84(10) 26_566 . . . ?
O16 Fe2 O18 Co2 -8(10) 18 . . . ?
O13 Fe2 O18 Fe1 47.4(8) 31_566 . . . ?
O3 Fe2 O18 Fe1 -43.1(9) . . . . ?
O20 Fe2 O18 Fe1 176(5) . . . . ?
O2 Fe2 O18 Fe1 -134.5(6) 26_566 . . . ?
O16 Fe2 O18 Fe1 134.1(6) 18 . . . ?
O13 Fe2 O18 Co1 45.2(8) 31_566 . . . ?
O3 Fe2 O18 Co1 -45.3(8) . . . . ?
O20 Fe2 O18 Co1 174(6) . . . . ?
O2 Fe2 O18 Co1 -136.6(9) 26_566 . . . ?
O16 Fe2 O18 Co1 132.0(9) 18 . . . ?
O13 Fe2 O18 Co3 -128.4(8) 31_566 . . . ?
O3 Fe2 O18 Co3 141.1(9) . . . . ?
O20 Fe2 O18 Co3 0(6) . . . . ?
O2 Fe2 O18 Co3 49.7(7) 26_566 . . . ?
O16 Fe2 O18 Co3 -41.7(8) 18 . . . ?
O9 Co3 O19 Fe3 -170(8) . . . . ?
O5 Co3 O19 Fe3 97(8) 3_465 . . . ?
O18 Co3 O19 Fe3 1(3) . . . . ?
O15 Co3 O19 Fe3 -78(8) 18 . . . ?
O1 Co3 O19 Fe3 11(8) 26_566 . . . ?
O18 Fe3 O19 Co3 -12(36) . . . . ?
O5 Fe3 O19 Co3 -78(8) 3_465 . . . ?
O1 Fe3 O19 Co3 -169(8) 26_566 . . . ?
O15 Fe3 O19 Co3 98(8) 18 . . . ?
O9 Fe3 O19 Co3 10(8) . . . . ?
O13 Fe2 O20 Co2 99(10) 31_566 . . . ?
O3 Fe2 O20 Co2 -171(10) . . . . ?
O18 Fe2 O20 Co2 -29(7) . . . . ?
O2 Fe2 O20 Co2 -79(10) 26_566 . . . ?
O16 Fe2 O20 Co2 13(10) 18 . . . ?
O18 Co2 O20 Fe2 51(10) . . . . ?
O13 Co2 O20 Fe2 -76(10) 31_566 . . . ?
O16 Co2 O20 Fe2 -166(10) 18 . . . ?
O2 Co2 O20 Fe2 97(10) 26_566 . . . ?
O3 Co2 O20 Fe2 9(9) . . . . ?
O7 Co4 O21 Fe4 155(9) 11_575 . . . ?
O22 Co4 O21 Fe4 18(4) . . . . ?
O11 Co4 O21 Fe4 65(8) 19_554 . . . ?
O8 Co4 O21 Fe4 -109(9) 9_465 . . . ?
O12 Co4 O21 Fe4 -24(8) . . . . ?
O12 Fe4 O21 Co4 154(9) . . . . ?
O22 Fe4 O21 Co4 -32(8) . . . . ?
O11 Fe4 O21 Co4 -110(9) 19_554 . . . ?
O8 Fe4 O21 Co4 66(9) 9_465 . . . ?
O7 Fe4 O21 Co4 -23(9) 11_575 . . . ?
O12 Fe4 O22 Fe4 -41.5(12) . . . 18 ?
O11 Fe4 O22 Fe4 -137.8(9) 19_554 . . 18 ?
O8 Fe4 O22 Fe4 46.7(12) 9_465 . . 18 ?
O21 Fe4 O22 Fe4 144(8) . . . 18 ?
O7 Fe4 O22 Fe4 135.9(10) 11_575 . . 18 ?
O12 Fe4 O22 Fe4 133.1(10) . . . 19_554 ?
O11 Fe4 O22 Fe4 36.8(13) 19_554 . . 19_554 ?
O8 Fe4 O22 Fe4 -138.7(9) 9_465 . . 19_554 ?
O21 Fe4 O22 Fe4 -41(9) . . . 19_554 ?
O7 Fe4 O22 Fe4 -49.6(12) 11_575 . . 19_554 ?
O12 Fe4 O22 Co4 -155(9) . . . . ?
O11 Fe4 O22 Co4 109(9) 19_554 . . . ?
O8 Fe4 O22 Co4 -67(9) 9_465 . . . ?
O21 Fe4 O22 Co4 31(7) . . . . ?
O7 Fe4 O22 Co4 22(9) 11_575 . . . ?
O12 Fe4 O22 Co4 -48.0(10) . . . 18 ?
O11 Fe4 O22 Co4 -144.3(12) 19_554 . . 18 ?
O8 Fe4 O22 Co4 40.3(10) 9_465 . . 18 ?
O21 Fe4 O22 Co4 138(8) . . . 18 ?
O7 Fe4 O22 Co4 129.4(11) 11_575 . . 18 ?
O12 Fe4 O22 Co4 139.6(12) . . . 19_554 ?
O11 Fe4 O22 Co4 43.3(11) 19_554 . . 19_554 ?
O8 Fe4 O22 Co4 -132.1(12) 9_465 . . 19_554 ?
O21 Fe4 O22 Co4 -35(9) . . . 19_554 ?
O7 Fe4 O22 Co4 -43.0(11) 11_575 . . 19_554 ?
O7 Co4 O22 Fe4 -155(9) 11_575 . . . ?
O11 Co4 O22 Fe4 -65(8) 19_554 . . . ?
O8 Co4 O22 Fe4 107(9) 9_465 . . . ?
O21 Co4 O22 Fe4 -19(4) . . . . ?
O12 Co4 O22 Fe4 22(8) . . . . ?
O7 Co4 O22 Fe4 135.0(11) 11_575 . . 18 ?
O11 Co4 O22 Fe4 -135.2(11) 19_554 . . 18 ?
O8 Co4 O22 Fe4 37.2(13) 9_465 . . 18 ?
O21 Co4 O22 Fe4 -89(10) . . . 18 ?
O12 Co4 O22 Fe4 -47.3(11) . . . 18 ?
O7 Co4 O22 Fe4 -43.9(11) 11_575 . . 19_554 ?
O11 Co4 O22 Fe4 45.9(11) 19_554 . . 19_554 ?
O8 Co4 O22 Fe4 -141.7(11) 9_465 . . 19_554 ?
O21 Co4 O22 Fe4 92(10) . . . 19_554 ?
O12 Co4 O22 Fe4 133.8(10) . . . 19_554 ?
O7 Co4 O22 Co4 128.7(11) 11_575 . . 18 ?
O11 Co4 O22 Co4 -141.5(11) 19_554 . . 18 ?
O8 Co4 O22 Co4 30.9(19) 9_465 . . 18 ?
O21 Co4 O22 Co4 -96(10) . . . 18 ?
O12 Co4 O22 Co4 -53.6(16) . . . 18 ?
O7 Co4 O22 Co4 -37.2(18) 11_575 . . 19_554 ?
O11 Co4 O22 Co4 52.6(19) 19_554 . . 19_554 ?
O8 Co4 O22 Co4 -135.1(10) 9_465 . . 19_554 ?
O21 Co4 O22 Co4 98(10) . . . 19_554 ?
O12 Co4 O22 Co4 140.4(12) . . . 19_554 ?
C4 N1 N2 C9 179.6(19) . . . . ?
C22 N3 N4 C25 -159.7(19) . . . . ?
Fe2 O2 C1 O1 2(4) 27_665 . . . ?
Co2 O2 C1 O1 1(3) 27_665 . . . ?
Fe2 O2 C1 C2 -179.3(13) 27_665 . . . ?
Co2 O2 C1 C2 179.4(14) 27_665 . . . ?
Fe3 O1 C1 O2 -14(3) 27_665 . . . ?
Co3 O1 C1 O2 -13(4) 27_665 . . . ?
Fe3 O1 C1 C2 168.2(14) 27_665 . . . ?
Co3 O1 C1 C2 168.7(14) 27_665 . . . ?
O2 C1 C2 C3 7(3) . . . . ?
O1 C1 C2 C3 -175.0(19) . . . . ?
O2 C1 C2 C7 -174(2) . . . . ?
O1 C1 C2 C7 5(3) . . . . ?
C7 C2 C3 C4 -2(3) . . . . ?
C1 C2 C3 C4 177(2) . . . . ?
N2 N1 C4 C5 -164(2) . . . . ?
N2 N1 C4 C3 7(3) . . . . ?
C2 C3 C4 C5 2(3) . . . . ?
C2 C3 C4 N1 -168(2) . . . . ?
N1 C4 C5 C6 171(2) . . . . ?
C3 C4 C5 C6 0(4) . . . . ?
C4 C5 C6 C7 -3(4) . . . . ?
C4 C5 C6 C8 175(2) . . . . ?
C5 C6 C7 C2 3(4) . . . . ?
C8 C6 C7 C2 -175(2) . . . . ?
C3 C2 C7 C6 -1(4) . . . . ?
C1 C2 C7 C6 180(2) . . . . ?
Fe1 O4 C8 O3 -2(3) . . . . ?
Co1 O4 C8 O3 -4(4) . . . . ?
Fe1 O4 C8 C6 -176.6(14) . . . . ?
Co1 O4 C8 C6 -178.9(17) . . . . ?
Fe2 O3 C8 O4 6(3) . . . . ?
Co2 O3 C8 O4 8(3) . . . . ?
Fe2 O3 C8 C6 -179.3(14) . . . . ?
Co2 O3 C8 C6 -176.9(15) . . . . ?
C7 C6 C8 O4 158(2) . . . . ?
C5 C6 C8 O4 -20(3) . . . . ?
C7 C6 C8 O3 -17(4) . . . . ?
C5 C6 C8 O3 165(2) . . . . ?
N1 N2 C9 C14 166(2) . . . . ?
N1 N2 C9 C10 -13(3) . . . . ?
C14 C9 C10 C11 11(4) . . . . ?
N2 C9 C10 C11 -170(2) . . . . ?
C9 C10 C11 C12 -2(4) . . . . ?
C9 C10 C11 C15 179(2) . . . . ?
C10 C11 C12 C13 1(4) . . . . ?
C15 C11 C12 C13 179(2) . . . . ?
C11 C12 C13 C14 -7(4) . . . . ?
C11 C12 C13 C16 -175(2) . . . . ?
C10 C9 C14 C13 -16(3) . . . . ?
N2 C9 C14 C13 164.5(19) . . . . ?
C12 C13 C14 C9 14(3) . . . . ?
C16 C13 C14 C9 -177(2) . . . . ?
Co4 O7 C15 O8 -6(4) 11_575 . . . ?
Fe4 O7 C15 O8 -7(3) 11_575 . . . ?
Co4 O7 C15 C11 171.6(15) 11_575 . . . ?
Fe4 O7 C15 C11 170.2(13) 11_575 . . . ?
Co4 O8 C15 O7 -6(4) 8_566 . . . ?
Fe4 O8 C15 O7 0(3) 8_566 . . . ?
Co4 O8 C15 C11 176.4(16) 8_566 . . . ?
Fe4 O8 C15 C11 -177.3(13) 8_566 . . . ?
C12 C11 C15 O7 -162(2) . . . . ?
C10 C11 C15 O7 16(3) . . . . ?
C12 C11 C15 O8 15(3) . . . . ?
C10 C11 C15 O8 -166(2) . . . . ?
Co1 O6 C16 O5 -11(3) 2_564 . . . ?
Fe1 O6 C16 O5 -4(3) 2_564 . . . ?
Co1 O6 C16 C13 -173.3(14) 2_564 . . . ?
Fe1 O6 C16 C13 -165.8(13) 2_564 . . . ?
Co3 O5 C16 O6 22(4) 2_564 . . . ?
Fe3 O5 C16 O6 9(3) 2_564 . . . ?
Co3 O5 C16 C13 -178.2(17) 2_564 . . . ?
Fe3 O5 C16 C13 169.2(15) 2_564 . . . ?
C12 C13 C16 O6 -24(3) . . . . ?
C14 C13 C16 O6 168.3(18) . . . . ?
C12 C13 C16 O5 175(2) . . . . ?
C14 C13 C16 O5 7(3) . . . . ?
Co1 O10 C17 O9 20(4) . . . . ?
Fe1 O10 C17 O9 15(4) . . . . ?
Co1 O10 C17 C18 -163.8(16) . . . . ?
Fe1 O10 C17 C18 -168.7(14) . . . . ?
Co3 O9 C17 O10 -7(4) . . . . ?
Fe3 O9 C17 O10 -4(3) . . . . ?
Co3 O9 C17 C18 176.3(15) . . . . ?
Fe3 O9 C17 C18 179.6(14) . . . . ?
O10 C17 C18 C23 -14(3) . . . . ?
O9 C17 C18 C23 163(2) . . . . ?
O10 C17 C18 C19 165(2) . . . . ?
O9 C17 C18 C19 -18(4) . . . . ?
C23 C18 C19 C20 2(4) . . . . ?
C17 C18 C19 C20 -177(2) . . . . ?
C18 C19 C20 C21 -2(4) . . . . ?
C18 C19 C20 C24 180(2) . . . . ?
C24 C20 C21 C22 176(2) . . . . ?
C19 C20 C21 C22 -2(4) . . . . ?
C20 C21 C22 C23 6(4) . . . . ?
C20 C21 C22 N3 178(2) . . . . ?
N4 N3 C22 C23 -4(3) . . . . ?
N4 N3 C22 C21 -175(2) . . . . ?
C19 C18 C23 C22 2(4) . . . . ?
C17 C18 C23 C22 -180(2) . . . . ?
C21 C22 C23 C18 -6(4) . . . . ?
N3 C22 C23 C18 -177(2) . . . . ?
Fe4 O12 C24 O11 14(3) . . . . ?
Co4 O12 C24 O11 9(4) . . . . ?
Fe4 O12 C24 C20 -169.0(16) . . . . ?
Co4 O12 C24 C20 -174.1(17) . . . . ?
Fe4 O11 C24 O12 -23(3) 18 . . . ?
Co4 O11 C24 O12 -15(3) 18 . . . ?
Fe4 O11 C24 C20 160.2(16) 18 . . . ?
Co4 O11 C24 C20 168.1(17) 18 . . . ?
C21 C20 C24 O12 12(4) . . . . ?
C19 C20 C24 O12 -169(2) . . . . ?
C21 C20 C24 O11 -171(2) . . . . ?
C19 C20 C24 O11 8(4) . . . . ?
N3 N4 C25 C26 -11(3) . . . . ?
N3 N4 C25 C30 172(2) . . . . ?
C30 C25 C26 C27 -1(4) . . . . ?
N4 C25 C26 C27 -177(2) . . . . ?
C25 C26 C27 C28 -2(4) . . . . ?
C25 C26 C27 C31 177(2) . . . . ?
C26 C27 C28 C29 7(4) . . . . ?
C31 C27 C28 C29 -172(2) . . . . ?
C27 C28 C29 C30 -9(4) . . . . ?
C27 C28 C29 C32 177(2) . . . . ?
C28 C29 C30 C25 6(4) . . . . ?
C32 C29 C30 C25 -180(2) . . . . ?
C26 C25 C30 C29 -1(4) . . . . ?
N4 C25 C30 C29 175(2) . . . . ?
Co2 O16 C31 O15 -9(4) 19_554 . . . ?
Fe2 O16 C31 O15 -12(4) 19_554 . . . ?
Co2 O16 C31 C27 -166.7(15) 19_554 . . . ?
Fe2 O16 C31 C27 -169.1(13) 19_554 . . . ?
Fe3 O15 C31 O16 18(3) 19_554 . . . ?
Co3 O15 C31 O16 18(4) 19_554 . . . ?
Fe3 O15 C31 C27 176.5(13) 19_554 . . . ?
Co3 O15 C31 C27 176.5(14) 19_554 . . . ?
C26 C27 C31 O16 161(2) . . . . ?
C28 C27 C31 O16 -20(3) . . . . ?
C26 C27 C31 O15 0(3) . . . . ?
C28 C27 C31 O15 179(2) . . . . ?
Fe2 O13 C32 O14 -20(3) 30_565 . . . ?
Co2 O13 C32 O14 -8(3) 30_565 . . . ?
Fe2 O13 C32 C29 162.6(16) 30_565 . . . ?
Co2 O13 C32 C29 174.3(17) 30_565 . . . ?
Fe1 O14 C32 O13 12(3) 30_565 . . . ?
Co1 O14 C32 O13 6(3) 30_565 . . . ?
Fe1 O14 C32 C29 -170.6(14) 30_565 . . . ?
Co1 O14 C32 C29 -175.7(15) 30_565 . . . ?
C28 C29 C32 O13 -166(2) . . . . ?
C30 C29 C32 O13 21(3) . . . . ?
C28 C29 C32 O14 17(4) . . . . ?
C30 C29 C32 O14 -157(2) . . . . ?

_diffrn_measured_fraction_theta_max 0.996
_diffrn_reflns_theta_full        24.77
_diffrn_measured_fraction_theta_full 0.996
_refine_diff_density_max         1.933
_refine_diff_density_min         -1.185
_refine_diff_density_rms         0.281


# SQUEEZE RESULTS (APPEND TO CIF)
# Note: Data are Listed for all Voids in the P1 Unit Cell
# i.e. Centre of Gravity, Solvent Accessible Volume,
# Recovered number of Electrons in the Void and
# Details about the Squeezed Material
loop_
_platon_squeeze_void_nr
_platon_squeeze_void_average_x
_platon_squeeze_void_average_y
_platon_squeeze_void_average_z
_platon_squeeze_void_volume
_platon_squeeze_void_count_electrons
_platon_squeeze_void_content
1 -0.001 -0.014 -0.004 50623 26398 ' '
_platon_squeeze_details          
;
;

